certificates/rado_a7_c211_N30.cnf
c Rad2 upper bound instance: x1 + 7*x2 - x3 = 211, interval [1,30]
p cnf 30 150
1 2 30 0
-1 -2 -30 0
2 3 30 0
-2 -3 -30 0
3 4 30 0
-3 -4 -30 0
4 5 30 0
-4 -5 -30 0
5 6 30 0
-5 -6 -30 0
6 7 30 0
-6 -7 -30 0
7 8 30 0
-7 -8 -30 0
1 9 29 0
-1 -9 -29 0
8 9 30 0
-8 -9 -30 0
2 10 29 0
-2 -10 -29 0
9 10 30 0
-9 -10 -30 0
3 11 29 0
-3 -11 -29 0
10 11 30 0
-10 -11 -30 0
4 12 29 0
-4 -12 -29 0
11 12 30 0
-11 -12 -30 0
5 13 29 0
-5 -13 -29 0
12 13 30 0
-12 -13 -30 0
6 14 29 0
-6 -14 -29 0
13 14 30 0
-13 -14 -30 0
7 15 29 0
-7 -15 -29 0
14 15 30 0
-14 -15 -30 0
1 16 28 0
-1 -16 -28 0
8 16 29 0
-8 -16 -29 0
15 16 30 0
-15 -16 -30 0
2 17 28 0
-2 -17 -28 0
9 17 29 0
-9 -17 -29 0
16 17 30 0
-16 -17 -30 0
3 18 28 0
-3 -18 -28 0
10 18 29 0
-10 -18 -29 0
17 18 30 0
-17 -18 -30 0
4 19 28 0
-4 -19 -28 0
11 19 29 0
-11 -19 -29 0
18 19 30 0
-18 -19 -30 0
5 20 28 0
-5 -20 -28 0
12 20 29 0
-12 -20 -29 0
19 20 30 0
-19 -20 -30 0
6 21 28 0
-6 -21 -28 0
13 21 29 0
-13 -21 -29 0
20 21 30 0
-20 -21 -30 0
7 22 28 0
-7 -22 -28 0
14 22 29 0
-14 -22 -29 0
21 22 30 0
-21 -22 -30 0
1 23 27 0
-1 -23 -27 0
8 23 28 0
-8 -23 -28 0
15 23 29 0
-15 -23 -29 0
22 23 30 0
-22 -23 -30 0
2 24 27 0
-2 -24 -27 0
9 24 28 0
-9 -24 -28 0
16 24 29 0
-16 -24 -29 0
23 24 30 0
-23 -24 -30 0
3 25 27 0
-3 -25 -27 0
10 25 28 0
-10 -25 -28 0
17 25 29 0
-17 -25 -29 0
24 25 30 0
-24 -25 -30 0
4 26 27 0
-4 -26 -27 0
11 26 28 0
-11 -26 -28 0
18 26 29 0
-18 -26 -29 0
25 26 30 0
-25 -26 -30 0
5 27 0
-5 -27 0
12 27 28 0
-12 -27 -28 0
19 27 29 0
-19 -27 -29 0
26 27 30 0
-26 -27 -30 0
6 27 28 0
-6 -27 -28 0
13 28 0
-13 -28 0
20 28 29 0
-20 -28 -29 0
27 28 30 0
-27 -28 -30 0
7 27 29 0
-7 -27 -29 0
14 28 29 0
-14 -28 -29 0
21 29 0
-21 -29 0
28 29 30 0
-28 -29 -30 0
1 26 30 0
-1 -26 -30 0
8 27 30 0
-8 -27 -30 0
15 28 30 0
-15 -28 -30 0
22 29 30 0
-22 -29 -30 0
29 30 0
-29 -30 0
