certificates/rado_a7_c211_N30.drat
-30 0
29 0
-21 0
20 0
22 0
-12 0
-28 0
-14 0
11 0
13 0
27 0
15 0
6 0
-3 0
-19 0
-5 0
-7 0
-23 0
2 0
4 0
18 0
8 0
24 0
-10 0
0
